NAME: sim-grid-A-50
TYPE: TSP
COMMENT: Semi-regular Grid
DIMENSION: 50
EDGE_WEIGHT_TYPE: EUC_2D
NODE_COORD_SECTION
1 50 100
2 150 100
3 350 100
4 450 100
5 650 100
6 950 100
7 1050 100
8 1350 100
9 1550 100
10 50 150
11 150 150
12 350 150
13 450 150
14 650 150
15 750 150
16 1350 150
17 1550 150
18 50 350
19 250 350
20 600 350
21 750 350
22 950 350
23 1100 350
24 1450 350
25 50 400
26 400 400
27 600 400
28 750 400
29 950 400
30 1100 400
31 1300 400
32 1450 400
33 100 600
34 150 600
35 350 600
36 600 600
37 900 600
38 1100 600
39 1150 600
40 1400 600
41 100 650
42 150 650
43 350 650
44 600 650
45 650 650
46 850 650
47 900 650
48 1150 650
49 1350 650
50 1400 650
EOF
